; Copyright (c) 2026 The RIINA Authors. All rights reserved.
; Copyright (c) 2026 The RIINA Authors.
; Auto-generated from 02_FORMAL/coq/domains/mobile_os/TouchGestureSystem.v (21 assertions)
; Generated by scripts/generate-full-stack.py
; Module: TouchGestureSystem

(set-logic ALL)
(set-option :produce-models true)

; GestureType (matches Coq: Inductive GestureType)
(declare-datatypes ((GestureType 0)) (((Tap) (DoubleTap) (LongPress) (Swipe) (Pinch) (Rotate) (Pan) (Unknown))))

; TouchEvent (matches Coq: Record TouchEvent)
(declare-datatypes ((TouchEvent 0))
  (((mk-touch_event (touch_id Int) (touch_position Coordinate) (touch_timestamp Int) (touch_pressure Int) (touch_is_physical Bool) (touch_registered Bool) (touch_display_latency Microseconds)))))

; MultiTouchState (matches Coq: Record MultiTouchState)
(declare-datatypes ((MultiTouchState 0))
  (((mk-multi_touch_state (active_touches list) (max_simultaneous Int) (coalesced_events list) (predicted_events list)))))

; Microseconds (matches Coq: Definition Microseconds)
(define-fun Microseconds () Type nat)

; Coordinate (matches Coq: Definition Coordinate)
(define-fun Coordinate () Type true)

; TouchSequence (matches Coq: Definition TouchSequence)
(define-fun TouchSequence () Type true)

; physical_touch (matches Coq: Definition physical_touch)
(define-fun physical_touch ((t TouchEvent)) Prop
  true)

; registered (matches Coq: Definition registered)
(define-fun registered ((t TouchEvent)) Prop
  true)

; display_latency (matches Coq: Definition display_latency)
(define-fun display_latency ((t TouchEvent)) Microseconds
  (touch_display_latency t))

; latency_bound (matches Coq: Definition latency_bound)
(define-fun latency_bound () Microseconds 10000)

; touch_system_correct (matches Coq: Definition touch_system_correct)
(define-fun touch_system_correct ((t TouchEvent)) Prop
  true)

; intended_gesture (matches Coq: Definition intended_gesture)
(define-fun intended_gesture ((seq TouchSequence) (g GestureType)) Prop
  true)

; recognized_gesture (matches Coq: Definition recognized_gesture)
(define-fun recognized_gesture ((seq TouchSequence)) GestureType
  true)

; touch_area (matches Coq: Definition touch_area)
(define-fun touch_area ((t TouchEvent)) Int
  true)

; touch_area_minimum (matches Coq: Definition touch_area_minimum)
(define-fun touch_area_minimum () Int 1)

; touch_pressure_max (matches Coq: Definition touch_pressure_max)
(define-fun touch_pressure_max () Int 1023)

; touch_latency_max (matches Coq: Definition touch_latency_max)
(define-fun touch_latency_max () Microseconds 16000)

; is_hover_event (matches Coq: Definition is_hover_event)
(define-fun is_hover_event ((t TouchEvent)) Bool
  true)

; is_stylus_event (matches Coq: Definition is_stylus_event)
(define-fun is_stylus_event ((t TouchEvent)) Bool
  true)

; edge_margin (matches Coq: Definition edge_margin)
(define-fun edge_margin () Int 20)

; is_edge_touch (matches Coq: Definition is_edge_touch)
(define-fun is_edge_touch ((t TouchEvent)) Bool
  true)

; is_accidental_touch (matches Coq: Definition is_accidental_touch)
(define-fun is_accidental_touch ((t TouchEvent)) Bool
  true)

; gesture_priority (matches Coq: Definition gesture_priority)
(define-fun gesture_priority ((g GestureType)) Int
  true)

; touch_cancelled (matches Coq: Definition touch_cancelled)
(define-fun touch_cancelled ((seq TouchSequence)) Bool
  true)

; multi_touch_count (matches Coq: Definition multi_touch_count)
(define-fun multi_touch_count ((mt MultiTouchState)) Int
  true)

; well_formed_multi_touch (matches Coq: Definition well_formed_multi_touch)
(define-fun well_formed_multi_touch ((mt MultiTouchState)) Prop
  true)

; touch_latency_bounded (matches Coq: Theorem touch_latency_bounded)
(assert (= true true)) ; touch_latency_bounded [untranslatable]

; touch_registration_complete (matches Coq: Theorem touch_registration_complete)
(assert (= true true)) ; touch_registration_complete [untranslatable]

; no_ghost_touches (matches Coq: Theorem no_ghost_touches)
(assert (= true true)) ; no_ghost_touches [untranslatable]

; gesture_recognition_tap (matches Coq: Theorem gesture_recognition_tap)
(assert (= true true)) ; gesture_recognition_tap [untranslatable]

; touch_physical_registered_equiv (matches Coq: Theorem touch_physical_registered_equiv)
(assert (= true true)) ; touch_physical_registered_equiv [untranslatable]

; touch_event_ordered (matches Coq: Theorem touch_event_ordered)
(assert (= true true)) ; touch_event_ordered [untranslatable]

; multi_touch_tracked (matches Coq: Theorem multi_touch_tracked)
(assert (= true true)) ; multi_touch_tracked [untranslatable]

; touch_cancel_handled (matches Coq: Theorem touch_cancel_handled)
(assert (= true true)) ; touch_cancel_handled [untranslatable]

; gesture_priority_defined (matches Coq: Theorem gesture_priority_defined)
(assert (= true true)) ; gesture_priority_defined [untranslatable]

; touch_area_at_least_minimum (matches Coq: Theorem touch_area_at_least_minimum)
(assert (= true true)) ; touch_area_at_least_minimum [untranslatable]

; touch_pressure_bounded (matches Coq: Theorem touch_pressure_bounded)
(assert (= true true)) ; touch_pressure_bounded [untranslatable]

; touch_latency_bounded_16ms (matches Coq: Theorem touch_latency_bounded_16ms)
(assert (= true true)) ; touch_latency_bounded_16ms [untranslatable]

; hover_event_supported (matches Coq: Theorem hover_event_supported)
(assert (forall ((t TouchEvent)) (=> (= (is_hover_event t) true) (= (touch_is_physical t) false)))) ; hover_event_supported

; stylus_pressure_sensitive (matches Coq: Theorem stylus_pressure_sensitive)
(assert (= true true)) ; stylus_pressure_sensitive [untranslatable]

; touch_coalescing_correct (matches Coq: Theorem touch_coalescing_correct)
(assert (= true true)) ; touch_coalescing_correct [untranslatable]

; touch_prediction_bounded (matches Coq: Theorem touch_prediction_bounded)
(assert (= true true)) ; touch_prediction_bounded [untranslatable]

; edge_touch_distinguished (matches Coq: Theorem edge_touch_distinguished)
(assert (= true true)) ; edge_touch_distinguished [untranslatable]

; accidental_touch_rejected (matches Coq: Theorem accidental_touch_rejected)
(assert (= true true)) ; accidental_touch_rejected [untranslatable]

; touch_event_timestamp_monotonic_single (matches Coq: Theorem touch_event_timestamp_monotonic_single)
(assert (= true true)) ; touch_event_timestamp_monotonic_single [untranslatable]

; simultaneous_gesture_resolution (matches Coq: Theorem simultaneous_gesture_resolution)
(assert (= true true)) ; simultaneous_gesture_resolution [untranslatable]

; unknown_gesture_lowest_priority (matches Coq: Theorem unknown_gesture_lowest_priority)
(assert (= true true)) ; unknown_gesture_lowest_priority [untranslatable]

; Verify all assertions are satisfiable
(check-sat)
(exit)
